NAME : pairopt
TYPE : ACVRP
DIMENSION : 5
EDGE_WEIGHT_TYPE : EXPLICIT
EDGE_WEIGHT_FORMAT : FULL_MATRIX
CAPACITY : 52
VEHICLES : 2
EDGE_WEIGHT_SECTION
100000 -100000 -100000 100000 100000 
100000 100000 1000000 2847 1461 
100000 1000000 100000 -338 3084 
0 0 0 100000 3280 
0 0 0 3280 100000 
DEMAND_SECTION
1 0
2 0
3 0
4 29
5 40
DEPOT_SECTION
1
EOF